Set parameter Username
Academic license - for non-commercial use only - expires 2024-12-10
Set parameter LazyConstraints to value 1
Set parameter TimeLimit to value 600
Gurobi Optimizer version 10.0.0 build v10.0.0rc2 (linux64)

CPU model: Intel(R) Core(TM) i5-4590 CPU @ 3.30GHz, instruction set [SSE2|AVX|AVX2]
Thread count: 4 physical cores, 4 logical processors, using up to 4 threads

Optimize a model with 414 rows, 94 columns and 482 nonzeros
Model fingerprint: 0x83515ed7
Variable types: 0 continuous, 94 integer (94 binary)
Coefficient statistics:
  Matrix range     [1e+00, 1e+00]
  Objective range  [1e+00, 1e+01]
  Bounds range     [1e+00, 1e+00]
  RHS range        [1e+00, 1e+00]
Presolve removed 388 rows and 9 columns
Presolve time: 0.00s
Presolved: 26 rows, 85 columns, 86 nonzeros
Variable types: 0 continuous, 85 integer (85 binary)

Root relaxation: objective 1.085000e+02, 23 iterations, 0.00 seconds (0.00 work units)

    Nodes    |    Current Node    |     Objective Bounds      |     Work
 Expl Unexpl |  Obj  Depth IntInf | Incumbent    BestBd   Gap | It/Node Time

     0     0  108.50000    0    3          -  108.50000      -     -    0s
     0     0  159.00000    0    -          -  159.00000      -     -    0s
     0     0  160.00000    0    -          -  160.00000      -     -    0s
     0     0  163.00000    0    -          -  163.00000      -     -    0s
     0     0  165.00000    0    -          -  165.00000      -     -    0s
     0     0  165.00000    0    -          -  165.00000      -     -    0s
     0     0  166.00000    0    -          -  166.00000      -     -    0s
     0     0  167.00000    0    -          -  167.00000      -     -    0s
     0     0  168.00000    0    -          -  168.00000      -     -    0s
H    0     0                     263.0000000  168.50000  35.9%     -    0s
     0     0  168.50000    0    6  263.00000  168.50000  35.9%     -    0s
     0     0  177.00000    0    -  263.00000  177.00000  32.7%     -    0s
     0     0  177.00000    0    -  263.00000  177.00000  32.7%     -    0s
H    0     0                     239.0000000  177.50000  25.7%     -    0s
     0     0  177.50000    0    5  239.00000  177.50000  25.7%     -    0s
     0     0  189.00000    0    -  239.00000  189.00000  20.9%     -    0s
     0     0  189.00000    0    -  239.00000  189.00000  20.9%     -    0s
     0     0  191.00000    0    4  239.00000  191.00000  20.1%     -    0s
     0     0  195.00000    0    -  239.00000  195.00000  18.4%     -    0s
     0     0  195.00000    0    -  239.00000  195.00000  18.4%     -    0s
H    0     0                     236.0000000  195.50000  17.2%     -    0s
     0     0  195.50000    0    4  236.00000  195.50000  17.2%     -    0s
H    0     2                     229.0000000  195.50000  14.6%     -    0s
     0     2  208.25000    0   14  229.00000  208.25000  9.06%     -    0s
H    1     4                     227.0000000  208.25000  8.26%   2.0    0s
H    3     8                     224.0000000  212.00000  5.36%  13.3    1s
H   15    12                     220.0000000  215.41667  2.08%  13.5    1s

Cutting planes:
  User: 34
  Gomory: 2
  Clique: 1
  Lazy constraints: 70

Explored 59 nodes (868 simplex iterations) in 1.44 seconds (0.02 work units)
Thread count was 4 (of 4 available processors)

Solution count 7: 220 224 227 ... 263

Optimal solution found (tolerance 1.00e-04)
Best objective 2.200000000000e+02, best bound 2.200000000000e+02, gap 0.0000%

User-callback calls 443, time in user-callback 1.39 sec
